num_vertices = 25;
num_edges = 24;
edges = {
    <1, 2>,
    <1, 6>,
    <2, 3>,
    <2, 10>,
    <3, 4>,
    <3, 14>,
    <4, 5>,
    <4, 18>,
    <5, 22>,
    <6, 7>,
    <7, 8>,
    <8, 9>,
    <10, 11>,
    <11, 12>,
    <12, 13>,
    <14, 15>,
    <15, 16>,
    <16, 17>,
    <18, 19>,
    <19, 20>,
    <20, 21>,
    <22, 23>,
    <23, 24>,
    <24, 25>
};
